Optimal - objective value 20298.00000000
      3 x0_4                   1                       0
      9 x0_10                  1         -2.0000000000012
     11 x1_2                   1                       0
     28 x2_9                   1         37.9999999999993
     30 x3_0                   1         26.0000000000011
     47 x4_8                   1                       0
     50 x5_0                   1         30.0000000000007
     63 x6_3                   1                      16
     75 x7_5                   1         2.99999999999958
     81 x8_1                   1                      36
     97 x9_7                   1                       0
    106 x10_6                  1         -5.00000000000175
    110 u1                    15                       0
    111 u2                    18                       0
    112 u3                    30                       0
    113 u4                     5                       0
    114 u5                    30                       0
    115 u6                    25                       0
    116 u7                    25                       0
    117 u8                    10                       0
    118 u9                    22                       0
    119 u10                    5                       0
